p cnf 86 204
8 -32 0
-8 32 0
30 -43 0
-30 43 0
4 6 0
-5 6 0
-4 5 -6 0
-1 6 -7 0
1 -6 -7 0
-1 -6 7 0
1 6 7 0
-7 0
-8 11 0
-9 11 0
10 11 0
8 9 -10 -11 0
8 -14 0
-12 -14 0
13 -14 0
-8 12 -13 14 0
1 -8 15 0
1 8 -15 0
-1 -11 15 0
-1 11 -15 0
1 -14 16 0
1 14 -16 0
-1 -12 16 0
-1 12 -16 0
17 19 0
-18 19 0
-17 18 -19 0
-5 -20 0
19 -20 0
5 -19 20 0
-2 20 -21 0
2 -20 -21 0
-2 -20 21 0
2 20 21 0
-21 0
16 -22 0
-13 -22 0
13 -16 22 0
-16 -23 0
10 -23 0
-10 16 23 0
-9 24 0
-23 24 0
9 23 -24 0
2 -24 25 0
2 24 -25 0
-2 -13 25 0
-2 13 -25 0
2 -9 26 0
2 9 -26 0
-2 -22 26 0
-2 22 -26 0
15 -27 0
26 -27 0
-15 -26 27 0
-27 28 0
25 28 0
-25 27 -28 0
28 -29 0
26 -29 0
-26 -28 29 0
15 30 0
-29 30 0
-15 29 -30 0
28 31 0
-25 31 0
25 -28 -31 0
30 -32 0
31 -32 0
-30 -31 32 0
-18 -34 0
33 -34 0
18 -33 34 0
-3 34 -35 0
3 -34 -35 0
-3 -34 35 0
3 34 35 0
-35 0
32 36 0
-16 36 0
16 -32 -36 0
26 -38 0
-30 -38 0
37 -38 0
-26 30 -37 38 0
3 -38 40 0
3 38 -40 0
-3 -39 40 0
-3 39 -40 0
3 -37 41 0
3 37 -41 0
-3 -36 41 0
-3 36 -41 0
16 -42 0
32 -42 0
-41 -42 0
-16 -32 41 42 0
-40 43 0
-42 43 0
40 42 -43 0
47 49 0
-48 49 0
-47 48 -49 0
-44 49 -50 0
44 -49 -50 0
-44 -49 50 0
44 49 50 0
-50 0
-51 54 0
-52 54 0
53 54 0
51 52 -53 -54 0
51 -57 0
-55 -57 0
56 -57 0
-51 55 -56 57 0
44 -51 58 0
44 51 -58 0
-44 -54 58 0
-44 54 -58 0
44 -57 59 0
44 57 -59 0
-44 -55 59 0
-44 55 -59 0
60 62 0
-61 62 0
-60 61 -62 0
-48 -63 0
62 -63 0
48 -62 63 0
-45 63 -64 0
45 -63 -64 0
-45 -63 64 0
45 63 64 0
-64 0
59 -65 0
-56 -65 0
56 -59 65 0
-59 -66 0
53 -66 0
-53 59 66 0
-52 67 0
-66 67 0
52 66 -67 0
45 -67 68 0
45 67 -68 0
-45 -56 68 0
-45 56 -68 0
45 -52 69 0
45 52 -69 0
-45 -65 69 0
-45 65 -69 0
58 -70 0
69 -70 0
-58 -69 70 0
-70 71 0
68 71 0
-68 70 -71 0
71 -72 0
69 -72 0
-69 -71 72 0
58 73 0
-72 73 0
-58 72 -73 0
71 74 0
-68 74 0
68 -71 -74 0
73 -75 0
74 -75 0
-73 -74 75 0
-61 -77 0
76 -77 0
61 -76 77 0
-46 77 -78 0
46 -77 -78 0
-46 -77 78 0
46 77 78 0
-78 0
75 79 0
-59 79 0
59 -75 -79 0
69 -81 0
-73 -81 0
80 -81 0
-69 73 -80 81 0
46 -81 83 0
46 81 -83 0
-46 -82 83 0
-46 82 -83 0
46 -80 84 0
46 80 -84 0
-46 -79 84 0
-46 79 -84 0
59 -85 0
75 -85 0
-84 -85 0
-59 -75 84 85 0
-83 86 0
-85 86 0
83 85 -86 0
